Route #1: 44 24 49 23 56 43 41 42 64 22 61 21 28 62 1 73
Route #2: 38 11 65 66 59 14 10 31 25 55 18 50 3
Route #3: 8 35 53 19 54 5 47 36 69 71 60 70 20 37 15 57 13 27 52
Route #4: 17 40 32 9 39 72 58 12 34 46 7 26 67
Route #5: 4 45 29 48 74 30 51 16 63 33 2 6 68 75
Cost 700.1852205517753